NAME: instance_1804
TYPE: TSP
DIMENSION: 20
EDGE_WEIGHT_TYPE: EUC_2D
NODE_COORD_SECTION
0 44.44 70.75
1 40.03 68.34
2 4.52 20.53
3 88.70 29.62
4 78.13 85.05
5 60.75 20.73
6 46.60 37.22
7 84.52 76.35
8 25.55 25.21
9 95.59 80.74
10 73.11 24.22
11 87.93 72.71
12 23.06 30.87
13 26.01 78.77
14 60.63 17.74
15 61.89 64.35
16 50.91 8.50
17 2.49 72.14
18 98.84 13.63
19 48.90 49.61
EOF
